c File: flat50_3_0.col
c
c SOURCE: Joseph Culberson (joe@cs.ualberta.ca)
c DESCRIPTION: Quasi-random coloring problem
c              generated with flatness = 0
c                             probability = 0.139
c                             known coloring = 3
c                             random seed = 1338
c              Creation Date:  Tue Jun  9 12:06:56 1998
c Maximum degree = 8 Minimum degree = 1
c p edge 50 115
c cnf created by edge2cnf
p cnf 150 545
-1 -2 0
-1 -3 0
-2 -3 0
1 2 3 0
-4 -5 0
-4 -6 0
-5 -6 0
4 5 6 0
-7 -8 0
-7 -9 0
-8 -9 0
7 8 9 0
-10 -11 0
-10 -12 0
-11 -12 0
10 11 12 0
-13 -14 0
-13 -15 0
-14 -15 0
13 14 15 0
-16 -17 0
-16 -18 0
-17 -18 0
16 17 18 0
-19 -20 0
-19 -21 0
-20 -21 0
19 20 21 0
-22 -23 0
-22 -24 0
-23 -24 0
22 23 24 0
-25 -26 0
-25 -27 0
-26 -27 0
25 26 27 0
-28 -29 0
-28 -30 0
-29 -30 0
28 29 30 0
-31 -32 0
-31 -33 0
-32 -33 0
31 32 33 0
-34 -35 0
-34 -36 0
-35 -36 0
34 35 36 0
-37 -38 0
-37 -39 0
-38 -39 0
37 38 39 0
-40 -41 0
-40 -42 0
-41 -42 0
40 41 42 0
-43 -44 0
-43 -45 0
-44 -45 0
43 44 45 0
-46 -47 0
-46 -48 0
-47 -48 0
46 47 48 0
-49 -50 0
-49 -51 0
-50 -51 0
49 50 51 0
-52 -53 0
-52 -54 0
-53 -54 0
52 53 54 0
-55 -56 0
-55 -57 0
-56 -57 0
55 56 57 0
-58 -59 0
-58 -60 0
-59 -60 0
58 59 60 0
-61 -62 0
-61 -63 0
-62 -63 0
61 62 63 0
-64 -65 0
-64 -66 0
-65 -66 0
64 65 66 0
-67 -68 0
-67 -69 0
-68 -69 0
67 68 69 0
-70 -71 0
-70 -72 0
-71 -72 0
70 71 72 0
-73 -74 0
-73 -75 0
-74 -75 0
73 74 75 0
-76 -77 0
-76 -78 0
-77 -78 0
76 77 78 0
-79 -80 0
-79 -81 0
-80 -81 0
79 80 81 0
-82 -83 0
-82 -84 0
-83 -84 0
82 83 84 0
-85 -86 0
-85 -87 0
-86 -87 0
85 86 87 0
-88 -89 0
-88 -90 0
-89 -90 0
88 89 90 0
-91 -92 0
-91 -93 0
-92 -93 0
91 92 93 0
-94 -95 0
-94 -96 0
-95 -96 0
94 95 96 0
-97 -98 0
-97 -99 0
-98 -99 0
97 98 99 0
-100 -101 0
-100 -102 0
-101 -102 0
100 101 102 0
-103 -104 0
-103 -105 0
-104 -105 0
103 104 105 0
-106 -107 0
-106 -108 0
-107 -108 0
106 107 108 0
-109 -110 0
-109 -111 0
-110 -111 0
109 110 111 0
-112 -113 0
-112 -114 0
-113 -114 0
112 113 114 0
-115 -116 0
-115 -117 0
-116 -117 0
115 116 117 0
-118 -119 0
-118 -120 0
-119 -120 0
118 119 120 0
-121 -122 0
-121 -123 0
-122 -123 0
121 122 123 0
-124 -125 0
-124 -126 0
-125 -126 0
124 125 126 0
-127 -128 0
-127 -129 0
-128 -129 0
127 128 129 0
-130 -131 0
-130 -132 0
-131 -132 0
130 131 132 0
-133 -134 0
-133 -135 0
-134 -135 0
133 134 135 0
-136 -137 0
-136 -138 0
-137 -138 0
136 137 138 0
-139 -140 0
-139 -141 0
-140 -141 0
139 140 141 0
-142 -143 0
-142 -144 0
-143 -144 0
142 143 144 0
-145 -146 0
-145 -147 0
-146 -147 0
145 146 147 0
-148 -149 0
-148 -150 0
-149 -150 0
148 149 150 0
-55 -1 0
-56 -2 0
-57 -3 0
-52 -4 0
-53 -5 0
-54 -6 0
-79 -4 0
-80 -5 0
-81 -6 0
-97 -4 0
-98 -5 0
-99 -6 0
-136 -4 0
-137 -5 0
-138 -6 0
-145 -4 0
-146 -5 0
-147 -6 0
-148 -4 0
-149 -5 0
-150 -6 0
-55 -7 0
-56 -8 0
-57 -9 0
-91 -7 0
-92 -8 0
-93 -9 0
-94 -7 0
-95 -8 0
-96 -9 0
-118 -7 0
-119 -8 0
-120 -9 0
-55 -10 0
-56 -11 0
-57 -12 0
-73 -10 0
-74 -11 0
-75 -12 0
-82 -10 0
-83 -11 0
-84 -12 0
-112 -10 0
-113 -11 0
-114 -12 0
-136 -10 0
-137 -11 0
-138 -12 0
-145 -10 0
-146 -11 0
-147 -12 0
-121 -13 0
-122 -14 0
-123 -15 0
-130 -13 0
-131 -14 0
-132 -15 0
-142 -13 0
-143 -14 0
-144 -15 0
-67 -16 0
-68 -17 0
-69 -18 0
-85 -16 0
-86 -17 0
-87 -18 0
-97 -16 0
-98 -17 0
-99 -18 0
-109 -16 0
-110 -17 0
-111 -18 0
-121 -16 0
-122 -17 0
-123 -18 0
-139 -16 0
-140 -17 0
-141 -18 0
-58 -19 0
-59 -20 0
-60 -21 0
-79 -19 0
-80 -20 0
-81 -21 0
-106 -19 0
-107 -20 0
-108 -21 0
-121 -19 0
-122 -20 0
-123 -21 0
-67 -22 0
-68 -23 0
-69 -24 0
-91 -22 0
-92 -23 0
-93 -24 0
-94 -22 0
-95 -23 0
-96 -24 0
-127 -22 0
-128 -23 0
-129 -24 0
-148 -22 0
-149 -23 0
-150 -24 0
-67 -25 0
-68 -26 0
-69 -27 0
-82 -25 0
-83 -26 0
-84 -27 0
-130 -25 0
-131 -26 0
-132 -27 0
-133 -25 0
-134 -26 0
-135 -27 0
-67 -28 0
-68 -29 0
-69 -30 0
-88 -28 0
-89 -29 0
-90 -30 0
-97 -28 0
-98 -29 0
-99 -30 0
-106 -28 0
-107 -29 0
-108 -30 0
-115 -28 0
-116 -29 0
-117 -30 0
-130 -28 0
-131 -29 0
-132 -30 0
-70 -31 0
-71 -32 0
-72 -33 0
-100 -31 0
-101 -32 0
-102 -33 0
-130 -31 0
-131 -32 0
-132 -33 0
-139 -31 0
-140 -32 0
-141 -33 0
-58 -34 0
-59 -35 0
-60 -36 0
-112 -34 0
-113 -35 0
-114 -36 0
-127 -34 0
-128 -35 0
-129 -36 0
-139 -34 0
-140 -35 0
-141 -36 0
-52 -37 0
-53 -38 0
-54 -39 0
-58 -37 0
-59 -38 0
-60 -39 0
-73 -37 0
-74 -38 0
-75 -39 0
-82 -37 0
-83 -38 0
-84 -39 0
-103 -37 0
-104 -38 0
-105 -39 0
-124 -37 0
-125 -38 0
-126 -39 0
-79 -40 0
-80 -41 0
-81 -42 0
-82 -40 0
-83 -41 0
-84 -42 0
-94 -40 0
-95 -41 0
-96 -42 0
-109 -40 0
-110 -41 0
-111 -42 0
-115 -40 0
-116 -41 0
-117 -42 0
-52 -43 0
-53 -44 0
-54 -45 0
-64 -43 0
-65 -44 0
-66 -45 0
-79 -43 0
-80 -44 0
-81 -45 0
-124 -43 0
-125 -44 0
-126 -45 0
-127 -43 0
-128 -44 0
-129 -45 0
-76 -46 0
-77 -47 0
-78 -48 0
-142 -46 0
-143 -47 0
-144 -48 0
-58 -49 0
-59 -50 0
-60 -51 0
-70 -49 0
-71 -50 0
-72 -51 0
-73 -49 0
-74 -50 0
-75 -51 0
-109 -49 0
-110 -50 0
-111 -51 0
-133 -49 0
-134 -50 0
-135 -51 0
-139 -49 0
-140 -50 0
-141 -51 0
-148 -49 0
-149 -50 0
-150 -51 0
-115 -52 0
-116 -53 0
-117 -54 0
-118 -52 0
-119 -53 0
-120 -54 0
-130 -52 0
-131 -53 0
-132 -54 0
-124 -55 0
-125 -56 0
-126 -57 0
-148 -55 0
-149 -56 0
-150 -57 0
-106 -58 0
-107 -59 0
-108 -60 0
-112 -58 0
-113 -59 0
-114 -60 0
-118 -58 0
-119 -59 0
-120 -60 0
-127 -58 0
-128 -59 0
-129 -60 0
-112 -61 0
-113 -62 0
-114 -63 0
-118 -61 0
-119 -62 0
-120 -63 0
-124 -61 0
-125 -62 0
-126 -63 0
-139 -61 0
-140 -62 0
-141 -63 0
-103 -64 0
-104 -65 0
-105 -66 0
-109 -64 0
-110 -65 0
-111 -66 0
-121 -64 0
-122 -65 0
-123 -66 0
-130 -64 0
-131 -65 0
-132 -66 0
-109 -67 0
-110 -68 0
-111 -69 0
-112 -67 0
-113 -68 0
-114 -69 0
-133 -67 0
-134 -68 0
-135 -69 0
-142 -67 0
-143 -68 0
-144 -69 0
-115 -70 0
-116 -71 0
-117 -72 0
-103 -76 0
-104 -77 0
-105 -78 0
-106 -76 0
-107 -77 0
-108 -78 0
-112 -79 0
-113 -80 0
-114 -81 0
-121 -79 0
-122 -80 0
-123 -81 0
-142 -79 0
-143 -80 0
-144 -81 0
-106 -82 0
-107 -83 0
-108 -84 0
-130 -82 0
-131 -83 0
-132 -84 0
-103 -88 0
-104 -89 0
-105 -90 0
-115 -88 0
-116 -89 0
-117 -90 0
-106 -94 0
-107 -95 0
-108 -96 0
-121 -94 0
-122 -95 0
-123 -96 0
-145 -94 0
-146 -95 0
-147 -96 0
-118 -97 0
-119 -98 0
-120 -99 0
-103 -100 0
-104 -101 0
-105 -102 0
-115 -100 0
-116 -101 0
-117 -102 0
